(set-logic BV) (define-fun origCir ((n242 Bool) (n325 Bool) (n254 Bool) (n207 Bool) (i50 Bool)) Bool (xor (and (xor n325 (not (and n254 n207))) n242) i50)) (synth-fun skel ((n242 Bool) (n325 Bool) (n254 Bool) (n207 Bool) (i50 Bool)) Bool) (declare-var n242 Bool) (declare-var n325 Bool) (declare-var n254 Bool) (declare-var n207 Bool) (declare-var i50 Bool) (constraint (= (origCir n242 n325 n254 n207 i50) (skel n242 n325 n254 n207 i50))) (check-synth)
